; 
(set-info :status unknown)
(declare-fun carg_node_0x7fffbb9bd450 () (_ BitVec 64))
(declare-fun add_0x7fffbb9be1c0 () (_ BitVec 64))
(declare-fun node_0x7fffbb9be050 () (_ BitVec 64))
(declare-fun node_0x7fffbb9bf990 () (_ BitVec 64))
(declare-fun sub_0x7fffbb9c0040 () (_ BitVec 64))
(declare-fun sdiv_0x7fffbb9bfc20 () (_ BitVec 64))
(declare-fun node_0x7fffbb9bf520 () (_ BitVec 64))
(declare-fun add_0x7fffbb9bf6c0 () (_ BitVec 64))
(declare-fun node_0x7fffbb9bf010 () (_ BitVec 64))
(declare-fun mul_0x7fffbb9bf1b0 () (_ BitVec 64))
(declare-fun node_0x7fffbb9bebf0 () (_ BitVec 64))
(declare-fun sdiv_0x7fffbb9bed90 () (_ BitVec 64))
(declare-fun node_0x7fffbb9be530 () (_ BitVec 64))
(declare-fun mul_0x7fffbb9be6d0 () (_ BitVec 64))
(declare-fun node_0x7fffbb9bfea0 () (_ BitVec 64))
(declare-fun node_0x7fffbb9c1840 () (_ BitVec 64))
(declare-fun sub_0x7fffbb9c1de0 () (_ BitVec 64))
(declare-fun sdiv_0x7fffbb9c19e0 () (_ BitVec 64))
(declare-fun node_0x7fffbb9c13d0 () (_ BitVec 64))
(declare-fun mul_0x7fffbb9c1570 () (_ BitVec 64))
(declare-fun node_0x7fffbb9c0e70 () (_ BitVec 64))
(declare-fun sdiv_0x7fffbb9c1010 () (_ BitVec 64))
(declare-fun node_0x7fffbb9c08c0 () (_ BitVec 64))
(declare-fun mul_0x7fffbb9c0a60 () (_ BitVec 64))
(declare-fun node_0x7fffbb9c03b0 () (_ BitVec 64))
(declare-fun add_0x7fffbb9c0550 () (_ BitVec 64))
(declare-fun node_0x7fffbb9c1c60 () (_ BitVec 64))
(declare-fun add_0x7fffbb9c22f0 () (_ BitVec 64))
(declare-fun node_0x7fffbb9c2150 () (_ BitVec 64))
(declare-fun node_0x7fffbb9c3680 () (_ BitVec 64))
(declare-fun sub_0x7fffbb9c4050 () (_ BitVec 64))
(declare-fun sdiv_0x7fffbb9c3c30 () (_ BitVec 64))
(declare-fun node_0x7fffbb9c3210 () (_ BitVec 64))
(declare-fun mul_0x7fffbb9c33b0 () (_ BitVec 64))
(declare-fun node_0x7fffbb9c2df0 () (_ BitVec 64))
(declare-fun sdiv_0x7fffbb9c2f90 () (_ BitVec 64))
(declare-fun node_0x7fffbb9c2660 () (_ BitVec 64))
(declare-fun mul_0x7fffbb9c2800 () (_ BitVec 64))
(declare-fun node_0x7fffbb9c3eb0 () (_ BitVec 64))
(declare-fun trunc_0x7fffbb9beac0 () (_ BitVec 32))
(declare-fun node_0x7fffbb9c4280 () (_ BitVec 32))
(declare-fun StMem_0x7fffbb9c4510 () (_ BitVec 32))
(declare-fun R0x7fffbb9bd560 () (_ BitVec 1))
(declare-fun LdMem_0x1d2a4f690 () (_ BitVec 32))
(declare-fun node_0x1d2a4f4f0 () (_ BitVec 32))
(assert
 (= add_0x7fffbb9be1c0 (bvadd carg_node_0x7fffbb9bd450 (_ bv68569 64))))
(assert
 (= node_0x7fffbb9be050 add_0x7fffbb9be1c0))
(assert
 (let (($x38 (= sub_0x7fffbb9c0040 (bvsub node_0x7fffbb9be050 node_0x7fffbb9bf990))))
 (let (($x40 (= node_0x7fffbb9bf990 sdiv_0x7fffbb9bfc20)))
 (let (($x50 (or (or (= node_0x7fffbb9bf520 (_ bv0 64)) (= (_ bv4 64) (_ bv0 64))) (and (distinct sdiv_0x7fffbb9bfc20 (_ bv0 64)) true))))
 (let (($x51 (and (= sdiv_0x7fffbb9bfc20 (bvsdiv node_0x7fffbb9bf520 (_ bv4 64))) $x50)))
 (let (($x53 (= node_0x7fffbb9bf520 add_0x7fffbb9bf6c0)))
 (let (($x57 (= add_0x7fffbb9bf6c0 (bvadd node_0x7fffbb9bf010 (_ bv3 64)))))
 (let (($x59 (= node_0x7fffbb9bf010 mul_0x7fffbb9bf1b0)))
 (let (($x68 (or (or (= (_ bv146097 64) (_ bv0 64)) (= node_0x7fffbb9bebf0 (_ bv0 64))) (and (distinct mul_0x7fffbb9bf1b0 (_ bv0 64)) true))))
 (let ((?x62 (bvmul (_ bv146097 64) node_0x7fffbb9bebf0)))
 (let (($x63 (= mul_0x7fffbb9bf1b0 ?x62)))
 (let (($x69 (and $x63 $x68)))
 (let (($x71 (= node_0x7fffbb9bebf0 sdiv_0x7fffbb9bed90)))
 (let (($x78 (or (or (= node_0x7fffbb9be530 (_ bv0 64)) (= (_ bv146097 64) (_ bv0 64))) (and (distinct sdiv_0x7fffbb9bed90 (_ bv0 64)) true))))
 (let (($x79 (and (= sdiv_0x7fffbb9bed90 (bvsdiv node_0x7fffbb9be530 (_ bv146097 64))) $x78)))
 (let (($x87 (or (or (= (_ bv4 64) (_ bv0 64)) (= node_0x7fffbb9be050 (_ bv0 64))) (and (distinct mul_0x7fffbb9be6d0 (_ bv0 64)) true))))
 (let (($x88 (and (= mul_0x7fffbb9be6d0 (bvmul (_ bv4 64) node_0x7fffbb9be050)) $x87)))
 (let (($x81 (= node_0x7fffbb9be530 mul_0x7fffbb9be6d0)))
 (and $x81 $x88 $x79 $x71 $x69 $x59 $x57 $x53 $x51 $x40 $x38)))))))))))))))))))
(assert
 (= node_0x7fffbb9bfea0 sub_0x7fffbb9c0040))
(assert
 (let (($x12903 (= sub_0x7fffbb9c1de0 (bvsub node_0x7fffbb9bfea0 node_0x7fffbb9c1840))))
 (let (($x12904 (= node_0x7fffbb9c1840 sdiv_0x7fffbb9c19e0)))
 (let (($x12911 (or (or (= node_0x7fffbb9c13d0 (_ bv0 64)) (= (_ bv4 64) (_ bv0 64))) (and (distinct sdiv_0x7fffbb9c19e0 (_ bv0 64)) true))))
 (let (($x12912 (and (= sdiv_0x7fffbb9c19e0 (bvsdiv node_0x7fffbb9c13d0 (_ bv4 64))) $x12911)))
 (let (($x12914 (= node_0x7fffbb9c13d0 mul_0x7fffbb9c1570)))
 (let (($x12923 (or (or (= (_ bv1461 64) (_ bv0 64)) (= node_0x7fffbb9c0e70 (_ bv0 64))) (and (distinct mul_0x7fffbb9c1570 (_ bv0 64)) true))))
 (let ((?x12917 (bvmul (_ bv1461 64) node_0x7fffbb9c0e70)))
 (let (($x12918 (= mul_0x7fffbb9c1570 ?x12917)))
 (let (($x12924 (and $x12918 $x12923)))
 (let (($x12926 (= node_0x7fffbb9c0e70 sdiv_0x7fffbb9c1010)))
 (let (($x12935 (or (or (= node_0x7fffbb9c08c0 (_ bv0 64)) (= (_ bv1461001 64) (_ bv0 64))) (and (distinct sdiv_0x7fffbb9c1010 (_ bv0 64)) true))))
 (let (($x12936 (and (= sdiv_0x7fffbb9c1010 (bvsdiv node_0x7fffbb9c08c0 (_ bv1461001 64))) $x12935)))
 (let (($x12938 (= node_0x7fffbb9c08c0 mul_0x7fffbb9c0a60)))
 (let (($x12946 (or (or (= (_ bv4000 64) (_ bv0 64)) (= node_0x7fffbb9c03b0 (_ bv0 64))) (and (distinct mul_0x7fffbb9c0a60 (_ bv0 64)) true))))
 (let (($x12947 (and (= mul_0x7fffbb9c0a60 (bvmul (_ bv4000 64) node_0x7fffbb9c03b0)) $x12946)))
 (let (($x12897 (= add_0x7fffbb9c0550 (bvadd node_0x7fffbb9bfea0 (_ bv1 64)))))
 (let (($x12948 (= node_0x7fffbb9c03b0 add_0x7fffbb9c0550)))
 (and $x12948 $x12897 $x12947 $x12938 $x12936 $x12926 $x12924 $x12914 $x12912 $x12904 $x12903)))))))))))))))))))
(assert
 (= node_0x7fffbb9c1c60 sub_0x7fffbb9c1de0))
(assert
 (= add_0x7fffbb9c22f0 (bvadd node_0x7fffbb9c1c60 (_ bv31 64))))
(assert
 (= node_0x7fffbb9c2150 add_0x7fffbb9c22f0))
(assert
 (let (($x12989 (= sub_0x7fffbb9c4050 (bvsub node_0x7fffbb9c2150 node_0x7fffbb9c3680))))
 (let (($x12991 (= node_0x7fffbb9c3680 sdiv_0x7fffbb9c3c30)))
 (let (($x13000 (or (or (= node_0x7fffbb9c3210 (_ bv0 64)) (= (_ bv80 64) (_ bv0 64))) (and (distinct sdiv_0x7fffbb9c3c30 (_ bv0 64)) true))))
 (let (($x13001 (and (= sdiv_0x7fffbb9c3c30 (bvsdiv node_0x7fffbb9c3210 (_ bv80 64))) $x13000)))
 (let (($x13003 (= node_0x7fffbb9c3210 mul_0x7fffbb9c33b0)))
 (let (($x13012 (or (or (= (_ bv2447 64) (_ bv0 64)) (= node_0x7fffbb9c2df0 (_ bv0 64))) (and (distinct mul_0x7fffbb9c33b0 (_ bv0 64)) true))))
 (let ((?x13006 (bvmul (_ bv2447 64) node_0x7fffbb9c2df0)))
 (let (($x13007 (= mul_0x7fffbb9c33b0 ?x13006)))
 (let (($x13013 (and $x13007 $x13012)))
 (let (($x13015 (= node_0x7fffbb9c2df0 sdiv_0x7fffbb9c2f90)))
 (let (($x13022 (or (or (= node_0x7fffbb9c2660 (_ bv0 64)) (= (_ bv2447 64) (_ bv0 64))) (and (distinct sdiv_0x7fffbb9c2f90 (_ bv0 64)) true))))
 (let (($x13023 (and (= sdiv_0x7fffbb9c2f90 (bvsdiv node_0x7fffbb9c2660 (_ bv2447 64))) $x13022)))
 (let (($x13031 (or (or (= (_ bv80 64) (_ bv0 64)) (= node_0x7fffbb9c2150 (_ bv0 64))) (and (distinct mul_0x7fffbb9c2800 (_ bv0 64)) true))))
 (let (($x13032 (and (= mul_0x7fffbb9c2800 (bvmul (_ bv80 64) node_0x7fffbb9c2150)) $x13031)))
 (let (($x13025 (= node_0x7fffbb9c2660 mul_0x7fffbb9c2800)))
 (and $x13025 $x13032 $x13023 $x13015 $x13013 $x13003 $x13001 $x12991 $x12989)))))))))))))))))
(assert
 (= node_0x7fffbb9c3eb0 sub_0x7fffbb9c4050))
(assert
 (= trunc_0x7fffbb9beac0 ((_ extract 31 0) node_0x7fffbb9c3eb0)))
(assert
 (= node_0x7fffbb9c4280 trunc_0x7fffbb9beac0))
(assert
 (= StMem_0x7fffbb9c4510 node_0x7fffbb9c4280))
(assert
 (= R0x7fffbb9bd560 (_ bv1 1)))
(assert
 (let (($x13072 (= LdMem_0x1d2a4f690 StMem_0x7fffbb9c4510)))
 (and (or (not (= R0x7fffbb9bd560 (_ bv1 1))) $x13072) $x13072)))
(assert
 (let (($x13076 (= node_0x1d2a4f4f0 LdMem_0x1d2a4f690)))
 (and $x13076 $x13076)))
(assert
 (and (distinct node_0x1d2a4f4f0 (_ bv0 32)) true))
(maximize node_0x7fffbb9bf520)
(minimize sub_0x7fffbb9c1de0)
(minimize mul_0x7fffbb9c2800)
(minimize mul_0x7fffbb9be6d0)
(minimize node_0x7fffbb9c4280)
(maximize node_0x7fffbb9be050)
(maximize add_0x7fffbb9c0550)
(minimize mul_0x7fffbb9bf1b0)
(maximize node_0x7fffbb9c1840)
(minimize node_0x7fffbb9c2660)
(maximize node_0x7fffbb9c2660)
(maximize mul_0x7fffbb9c33b0)
(maximize sdiv_0x7fffbb9c1010)
(maximize mul_0x7fffbb9c0a60)
(maximize node_0x7fffbb9be530)
(maximize sub_0x7fffbb9c0040)
(minimize mul_0x7fffbb9c0a60)
(maximize mul_0x7fffbb9c2800)
(maximize node_0x7fffbb9c13d0)
(minimize node_0x7fffbb9c03b0)
(minimize sdiv_0x7fffbb9bed90)
(maximize sub_0x7fffbb9c1de0)
(minimize sub_0x7fffbb9c0040)
(minimize add_0x7fffbb9be1c0)
(minimize node_0x7fffbb9c0e70)
(maximize mul_0x7fffbb9bf1b0)
(maximize R0x7fffbb9bd560)
(maximize sdiv_0x7fffbb9bfc20)
(maximize node_0x7fffbb9c3210)
(minimize sdiv_0x7fffbb9c19e0)
(minimize node_0x7fffbb9bfea0)
(minimize sdiv_0x7fffbb9c2f90)
(maximize node_0x7fffbb9c08c0)
(maximize sdiv_0x7fffbb9bed90)
(maximize add_0x7fffbb9c22f0)
(minimize node_0x7fffbb9c2df0)
(maximize trunc_0x7fffbb9beac0)
(maximize node_0x7fffbb9c3680)
(maximize mul_0x7fffbb9be6d0)
(minimize StMem_0x7fffbb9c4510)
(minimize LdMem_0x1d2a4f690)
(maximize mul_0x7fffbb9c1570)
(maximize node_0x7fffbb9bf010)
(minimize node_0x7fffbb9c1840)
(minimize sdiv_0x7fffbb9bfc20)
(minimize trunc_0x7fffbb9beac0)
(minimize node_0x7fffbb9c1c60)
(maximize node_0x7fffbb9c1c60)
(maximize add_0x7fffbb9bf6c0)
(minimize node_0x7fffbb9c2150)
(minimize node_0x7fffbb9bf520)
(maximize sub_0x7fffbb9c4050)
(maximize carg_node_0x7fffbb9bd450)
(minimize sdiv_0x7fffbb9c3c30)
(maximize node_0x7fffbb9bebf0)
(minimize node_0x7fffbb9bebf0)
(minimize add_0x7fffbb9c22f0)
(maximize StMem_0x7fffbb9c4510)
(minimize mul_0x7fffbb9c33b0)
(maximize node_0x7fffbb9c2150)
(maximize sdiv_0x7fffbb9c2f90)
(maximize node_0x7fffbb9c2df0)
(minimize node_0x7fffbb9bf990)
(maximize add_0x7fffbb9be1c0)
(maximize node_0x1d2a4f4f0)
(maximize LdMem_0x1d2a4f690)
(minimize carg_node_0x7fffbb9bd450)
(minimize add_0x7fffbb9bf6c0)
(minimize node_0x7fffbb9c08c0)
(maximize node_0x7fffbb9bfea0)
(minimize node_0x7fffbb9c3210)
(minimize sdiv_0x7fffbb9c1010)
(maximize node_0x7fffbb9c3eb0)
(minimize R0x7fffbb9bd560)
(minimize mul_0x7fffbb9c1570)
(minimize node_0x1d2a4f4f0)
(minimize node_0x7fffbb9be530)
(maximize sdiv_0x7fffbb9c3c30)
(minimize node_0x7fffbb9c3680)
(minimize node_0x7fffbb9c13d0)
(maximize node_0x7fffbb9c4280)
(maximize sdiv_0x7fffbb9c19e0)
(minimize add_0x7fffbb9c0550)
(minimize node_0x7fffbb9c3eb0)
(maximize node_0x7fffbb9c03b0)
(check-sat)
(get-objectives)
